p cnf 78 758
c one port of a gate receives one connection
-1 -2 0
-3 -4 0
-5 -6 0
-7 -8 0
-9 -6 0
-10 -8 0
-9 -5 0
-10 -7 0
-11 -12 0
-13 -14 0
-15 -12 0
-16 -14 0
-15 -11 0
-16 -13 0
-17 -12 0
-18 -14 0
-17 -11 0
-18 -13 0
-17 -15 0
-18 -16 0
-19 -20 0
-21 -22 0
-23 -20 0
-24 -22 0
-23 -19 0
-24 -21 0
-25 -20 0
-26 -22 0
-25 -19 0
-26 -21 0
-25 -23 0
-26 -24 0
-27 -20 0
-28 -22 0
-27 -19 0
-28 -21 0
-27 -23 0
-28 -24 0
-27 -25 0
-28 -26 0
2 1 0
4 3 0
6 5 9 0
8 7 10 0
12 11 15 17 0
14 13 16 18 0
20 19 23 25 27 0
22 21 24 26 28 0
c gates are connected to ports by increasing index
-2 -4 0
-1 -4 0
-1 -3 0
-6 -8 0
-5 -8 0
-9 -8 0
-5 -7 0
-9 -7 0
-9 -10 0
-12 -14 0
-11 -14 0
-15 -14 0
-17 -14 0
-11 -13 0
-15 -13 0
-17 -13 0
-15 -16 0
-17 -16 0
-17 -18 0
-20 -22 0
-19 -22 0
-23 -22 0
-25 -22 0
-27 -22 0
-19 -21 0
-23 -21 0
-25 -21 0
-27 -21 0
-23 -24 0
-25 -24 0
-27 -24 0
-25 -26 0
-27 -26 0
-27 -28 0
c one output of the circuit receives one connection
-29 -30 0
-31 -30 0
-31 -29 0
-32 -30 0
-32 -29 0
-32 -31 0
-33 -30 0
-33 -29 0
-33 -31 0
-33 -32 0
-34 -30 0
-34 -29 0
-34 -31 0
-34 -32 0
-34 -33 0
30 29 31 32 33 34 0
c input gate has input value
-35 0
36 0
-37 0
38 0
-39 0
-40 0
41 0
42 0
c outputs match truth table
-30 -35 0
-29 -39 0
-31 -43 0
-32 -44 0
-33 -45 0
-34 -46 0
-30 36 0
-29 40 0
-31 47 0
-32 48 0
-33 49 0
-34 50 0
-30 37 0
-29 41 0
-31 51 0
-32 52 0
-33 53 0
-34 54 0
-30 -38 0
-29 -42 0
-31 -55 0
-32 -56 0
-33 -57 0
-34 -58 0
c NOT gates produce calculated value
-2 -59 -43 -35 0
-2 -59 43 35 0
-2 -59 -47 -36 0
-2 -59 47 36 0
-2 -59 -51 -37 0
-2 -59 51 37 0
-2 -59 -55 -38 0
-2 -59 55 38 0
-1 -59 -43 -39 0
-1 -59 43 39 0
-1 -59 -47 -40 0
-1 -59 47 40 0
-1 -59 -51 -41 0
-1 -59 51 41 0
-1 -59 -55 -42 0
-1 -59 55 42 0
-6 -60 -44 -35 0
-6 -60 44 35 0
-6 -60 -48 -36 0
-6 -60 48 36 0
-6 -60 -52 -37 0
-6 -60 52 37 0
-6 -60 -56 -38 0
-6 -60 56 38 0
-5 -60 -44 -39 0
-5 -60 44 39 0
-5 -60 -48 -40 0
-5 -60 48 40 0
-5 -60 -52 -41 0
-5 -60 52 41 0
-5 -60 -56 -42 0
-5 -60 56 42 0
-9 -60 -44 -43 0
-9 -60 44 43 0
-9 -60 -48 -47 0
-9 -60 48 47 0
-9 -60 -52 -51 0
-9 -60 52 51 0
-9 -60 -56 -55 0
-9 -60 56 55 0
-12 -61 -45 -35 0
-12 -61 45 35 0
-12 -61 -49 -36 0
-12 -61 49 36 0
-12 -61 -53 -37 0
-12 -61 53 37 0
-12 -61 -57 -38 0
-12 -61 57 38 0
-11 -61 -45 -39 0
-11 -61 45 39 0
-11 -61 -49 -40 0
-11 -61 49 40 0
-11 -61 -53 -41 0
-11 -61 53 41 0
-11 -61 -57 -42 0
-11 -61 57 42 0
-15 -61 -45 -43 0
-15 -61 45 43 0
-15 -61 -49 -47 0
-15 -61 49 47 0
-15 -61 -53 -51 0
-15 -61 53 51 0
-15 -61 -57 -55 0
-15 -61 57 55 0
-17 -61 -45 -44 0
-17 -61 45 44 0
-17 -61 -49 -48 0
-17 -61 49 48 0
-17 -61 -53 -52 0
-17 -61 53 52 0
-17 -61 -57 -56 0
-17 -61 57 56 0
-20 -62 -46 -35 0
-20 -62 46 35 0
-20 -62 -50 -36 0
-20 -62 50 36 0
-20 -62 -54 -37 0
-20 -62 54 37 0
-20 -62 -58 -38 0
-20 -62 58 38 0
-19 -62 -46 -39 0
-19 -62 46 39 0
-19 -62 -50 -40 0
-19 -62 50 40 0
-19 -62 -54 -41 0
-19 -62 54 41 0
-19 -62 -58 -42 0
-19 -62 58 42 0
-23 -62 -46 -43 0
-23 -62 46 43 0
-23 -62 -50 -47 0
-23 -62 50 47 0
-23 -62 -54 -51 0
-23 -62 54 51 0
-23 -62 -58 -55 0
-23 -62 58 55 0
-25 -62 -46 -44 0
-25 -62 46 44 0
-25 -62 -50 -48 0
-25 -62 50 48 0
-25 -62 -54 -52 0
-25 -62 54 52 0
-25 -62 -58 -56 0
-25 -62 58 56 0
-27 -62 -46 -45 0
-27 -62 46 45 0
-27 -62 -50 -49 0
-27 -62 50 49 0
-27 -62 -54 -53 0
-27 -62 54 53 0
-27 -62 -58 -57 0
-27 -62 58 57 0
c AND/OR gates produce calculated value when all input bits the same
59 -2 -35 -3 -39 43 0
59 -2 35 -3 39 -43 0
59 -2 -36 -3 -40 47 0
59 -2 36 -3 40 -47 0
59 -2 -37 -3 -41 51 0
59 -2 37 -3 41 -51 0
59 -2 -38 -3 -42 55 0
59 -2 38 -3 42 -55 0
60 -6 -35 -7 -39 44 0
60 -6 35 -7 39 -44 0
60 -6 -36 -7 -40 48 0
60 -6 36 -7 40 -48 0
60 -6 -37 -7 -41 52 0
60 -6 37 -7 41 -52 0
60 -6 -38 -7 -42 56 0
60 -6 38 -7 42 -56 0
60 -6 -35 -10 -43 44 0
60 -6 35 -10 43 -44 0
60 -6 -36 -10 -47 48 0
60 -6 36 -10 47 -48 0
60 -6 -37 -10 -51 52 0
60 -6 37 -10 51 -52 0
60 -6 -38 -10 -55 56 0
60 -6 38 -10 55 -56 0
60 -5 -39 -10 -43 44 0
60 -5 39 -10 43 -44 0
60 -5 -40 -10 -47 48 0
60 -5 40 -10 47 -48 0
60 -5 -41 -10 -51 52 0
60 -5 41 -10 51 -52 0
60 -5 -42 -10 -55 56 0
60 -5 42 -10 55 -56 0
61 -12 -35 -13 -39 45 0
61 -12 35 -13 39 -45 0
61 -12 -36 -13 -40 49 0
61 -12 36 -13 40 -49 0
61 -12 -37 -13 -41 53 0
61 -12 37 -13 41 -53 0
61 -12 -38 -13 -42 57 0
61 -12 38 -13 42 -57 0
61 -12 -35 -16 -43 45 0
61 -12 35 -16 43 -45 0
61 -12 -36 -16 -47 49 0
61 -12 36 -16 47 -49 0
61 -12 -37 -16 -51 53 0
61 -12 37 -16 51 -53 0
61 -12 -38 -16 -55 57 0
61 -12 38 -16 55 -57 0
61 -11 -39 -16 -43 45 0
61 -11 39 -16 43 -45 0
61 -11 -40 -16 -47 49 0
61 -11 40 -16 47 -49 0
61 -11 -41 -16 -51 53 0
61 -11 41 -16 51 -53 0
61 -11 -42 -16 -55 57 0
61 -11 42 -16 55 -57 0
61 -12 -35 -18 -44 45 0
61 -12 35 -18 44 -45 0
61 -12 -36 -18 -48 49 0
61 -12 36 -18 48 -49 0
61 -12 -37 -18 -52 53 0
61 -12 37 -18 52 -53 0
61 -12 -38 -18 -56 57 0
61 -12 38 -18 56 -57 0
61 -11 -39 -18 -44 45 0
61 -11 39 -18 44 -45 0
61 -11 -40 -18 -48 49 0
61 -11 40 -18 48 -49 0
61 -11 -41 -18 -52 53 0
61 -11 41 -18 52 -53 0
61 -11 -42 -18 -56 57 0
61 -11 42 -18 56 -57 0
61 -15 -43 -18 -44 45 0
61 -15 43 -18 44 -45 0
61 -15 -47 -18 -48 49 0
61 -15 47 -18 48 -49 0
61 -15 -51 -18 -52 53 0
61 -15 51 -18 52 -53 0
61 -15 -55 -18 -56 57 0
61 -15 55 -18 56 -57 0
62 -20 -35 -21 -39 46 0
62 -20 35 -21 39 -46 0
62 -20 -36 -21 -40 50 0
62 -20 36 -21 40 -50 0
62 -20 -37 -21 -41 54 0
62 -20 37 -21 41 -54 0
62 -20 -38 -21 -42 58 0
62 -20 38 -21 42 -58 0
62 -20 -35 -24 -43 46 0
62 -20 35 -24 43 -46 0
62 -20 -36 -24 -47 50 0
62 -20 36 -24 47 -50 0
62 -20 -37 -24 -51 54 0
62 -20 37 -24 51 -54 0
62 -20 -38 -24 -55 58 0
62 -20 38 -24 55 -58 0
62 -19 -39 -24 -43 46 0
62 -19 39 -24 43 -46 0
62 -19 -40 -24 -47 50 0
62 -19 40 -24 47 -50 0
62 -19 -41 -24 -51 54 0
62 -19 41 -24 51 -54 0
62 -19 -42 -24 -55 58 0
62 -19 42 -24 55 -58 0
62 -20 -35 -26 -44 46 0
62 -20 35 -26 44 -46 0
62 -20 -36 -26 -48 50 0
62 -20 36 -26 48 -50 0
62 -20 -37 -26 -52 54 0
62 -20 37 -26 52 -54 0
62 -20 -38 -26 -56 58 0
62 -20 38 -26 56 -58 0
62 -19 -39 -26 -44 46 0
62 -19 39 -26 44 -46 0
62 -19 -40 -26 -48 50 0
62 -19 40 -26 48 -50 0
62 -19 -41 -26 -52 54 0
62 -19 41 -26 52 -54 0
62 -19 -42 -26 -56 58 0
62 -19 42 -26 56 -58 0
62 -23 -43 -26 -44 46 0
62 -23 43 -26 44 -46 0
62 -23 -47 -26 -48 50 0
62 -23 47 -26 48 -50 0
62 -23 -51 -26 -52 54 0
62 -23 51 -26 52 -54 0
62 -23 -55 -26 -56 58 0
62 -23 55 -26 56 -58 0
62 -20 -35 -28 -45 46 0
62 -20 35 -28 45 -46 0
62 -20 -36 -28 -49 50 0
62 -20 36 -28 49 -50 0
62 -20 -37 -28 -53 54 0
62 -20 37 -28 53 -54 0
62 -20 -38 -28 -57 58 0
62 -20 38 -28 57 -58 0
62 -19 -39 -28 -45 46 0
62 -19 39 -28 45 -46 0
62 -19 -40 -28 -49 50 0
62 -19 40 -28 49 -50 0
62 -19 -41 -28 -53 54 0
62 -19 41 -28 53 -54 0
62 -19 -42 -28 -57 58 0
62 -19 42 -28 57 -58 0
62 -23 -43 -28 -45 46 0
62 -23 43 -28 45 -46 0
62 -23 -47 -28 -49 50 0
62 -23 47 -28 49 -50 0
62 -23 -51 -28 -53 54 0
62 -23 51 -28 53 -54 0
62 -23 -55 -28 -57 58 0
62 -23 55 -28 57 -58 0
62 -25 -44 -28 -45 46 0
62 -25 44 -28 45 -46 0
62 -25 -48 -28 -49 50 0
62 -25 48 -28 49 -50 0
62 -25 -52 -28 -53 54 0
62 -25 52 -28 53 -54 0
62 -25 -56 -28 -57 58 0
62 -25 56 -28 57 -58 0
c AND/OR gates produce calculated value when some input bits differ
-2 -3 59 -39 35 -43 63 0
-2 -3 59 -39 35 43 -63 0
-2 -3 59 39 -35 -43 63 0
-2 -3 59 39 -35 43 -63 0
-2 -3 59 -40 36 -47 63 0
-2 -3 59 -40 36 47 -63 0
-2 -3 59 40 -36 -47 63 0
-2 -3 59 40 -36 47 -63 0
-2 -3 59 -41 37 -51 63 0
-2 -3 59 -41 37 51 -63 0
-2 -3 59 41 -37 -51 63 0
-2 -3 59 41 -37 51 -63 0
-2 -3 59 -42 38 -55 63 0
-2 -3 59 -42 38 55 -63 0
-2 -3 59 42 -38 -55 63 0
-2 -3 59 42 -38 55 -63 0
-6 -7 60 -39 35 -44 64 0
-6 -7 60 -39 35 44 -64 0
-6 -7 60 39 -35 -44 64 0
-6 -7 60 39 -35 44 -64 0
-6 -7 60 -40 36 -48 64 0
-6 -7 60 -40 36 48 -64 0
-6 -7 60 40 -36 -48 64 0
-6 -7 60 40 -36 48 -64 0
-6 -7 60 -41 37 -52 64 0
-6 -7 60 -41 37 52 -64 0
-6 -7 60 41 -37 -52 64 0
-6 -7 60 41 -37 52 -64 0
-6 -7 60 -42 38 -56 64 0
-6 -7 60 -42 38 56 -64 0
-6 -7 60 42 -38 -56 64 0
-6 -7 60 42 -38 56 -64 0
-6 -10 60 -43 35 -44 64 0
-6 -10 60 -43 35 44 -64 0
-6 -10 60 43 -35 -44 64 0
-6 -10 60 43 -35 44 -64 0
-6 -10 60 -47 36 -48 64 0
-6 -10 60 -47 36 48 -64 0
-6 -10 60 47 -36 -48 64 0
-6 -10 60 47 -36 48 -64 0
-6 -10 60 -51 37 -52 64 0
-6 -10 60 -51 37 52 -64 0
-6 -10 60 51 -37 -52 64 0
-6 -10 60 51 -37 52 -64 0
-6 -10 60 -55 38 -56 64 0
-6 -10 60 -55 38 56 -64 0
-6 -10 60 55 -38 -56 64 0
-6 -10 60 55 -38 56 -64 0
-5 -10 60 -43 39 -44 64 0
-5 -10 60 -43 39 44 -64 0
-5 -10 60 43 -39 -44 64 0
-5 -10 60 43 -39 44 -64 0
-5 -10 60 -47 40 -48 64 0
-5 -10 60 -47 40 48 -64 0
-5 -10 60 47 -40 -48 64 0
-5 -10 60 47 -40 48 -64 0
-5 -10 60 -51 41 -52 64 0
-5 -10 60 -51 41 52 -64 0
-5 -10 60 51 -41 -52 64 0
-5 -10 60 51 -41 52 -64 0
-5 -10 60 -55 42 -56 64 0
-5 -10 60 -55 42 56 -64 0
-5 -10 60 55 -42 -56 64 0
-5 -10 60 55 -42 56 -64 0
-12 -13 61 -39 35 -45 65 0
-12 -13 61 -39 35 45 -65 0
-12 -13 61 39 -35 -45 65 0
-12 -13 61 39 -35 45 -65 0
-12 -13 61 -40 36 -49 65 0
-12 -13 61 -40 36 49 -65 0
-12 -13 61 40 -36 -49 65 0
-12 -13 61 40 -36 49 -65 0
-12 -13 61 -41 37 -53 65 0
-12 -13 61 -41 37 53 -65 0
-12 -13 61 41 -37 -53 65 0
-12 -13 61 41 -37 53 -65 0
-12 -13 61 -42 38 -57 65 0
-12 -13 61 -42 38 57 -65 0
-12 -13 61 42 -38 -57 65 0
-12 -13 61 42 -38 57 -65 0
-12 -16 61 -43 35 -45 65 0
-12 -16 61 -43 35 45 -65 0
-12 -16 61 43 -35 -45 65 0
-12 -16 61 43 -35 45 -65 0
-12 -16 61 -47 36 -49 65 0
-12 -16 61 -47 36 49 -65 0
-12 -16 61 47 -36 -49 65 0
-12 -16 61 47 -36 49 -65 0
-12 -16 61 -51 37 -53 65 0
-12 -16 61 -51 37 53 -65 0
-12 -16 61 51 -37 -53 65 0
-12 -16 61 51 -37 53 -65 0
-12 -16 61 -55 38 -57 65 0
-12 -16 61 -55 38 57 -65 0
-12 -16 61 55 -38 -57 65 0
-12 -16 61 55 -38 57 -65 0
-11 -16 61 -43 39 -45 65 0
-11 -16 61 -43 39 45 -65 0
-11 -16 61 43 -39 -45 65 0
-11 -16 61 43 -39 45 -65 0
-11 -16 61 -47 40 -49 65 0
-11 -16 61 -47 40 49 -65 0
-11 -16 61 47 -40 -49 65 0
-11 -16 61 47 -40 49 -65 0
-11 -16 61 -51 41 -53 65 0
-11 -16 61 -51 41 53 -65 0
-11 -16 61 51 -41 -53 65 0
-11 -16 61 51 -41 53 -65 0
-11 -16 61 -55 42 -57 65 0
-11 -16 61 -55 42 57 -65 0
-11 -16 61 55 -42 -57 65 0
-11 -16 61 55 -42 57 -65 0
-12 -18 61 -44 35 -45 65 0
-12 -18 61 -44 35 45 -65 0
-12 -18 61 44 -35 -45 65 0
-12 -18 61 44 -35 45 -65 0
-12 -18 61 -48 36 -49 65 0
-12 -18 61 -48 36 49 -65 0
-12 -18 61 48 -36 -49 65 0
-12 -18 61 48 -36 49 -65 0
-12 -18 61 -52 37 -53 65 0
-12 -18 61 -52 37 53 -65 0
-12 -18 61 52 -37 -53 65 0
-12 -18 61 52 -37 53 -65 0
-12 -18 61 -56 38 -57 65 0
-12 -18 61 -56 38 57 -65 0
-12 -18 61 56 -38 -57 65 0
-12 -18 61 56 -38 57 -65 0
-11 -18 61 -44 39 -45 65 0
-11 -18 61 -44 39 45 -65 0
-11 -18 61 44 -39 -45 65 0
-11 -18 61 44 -39 45 -65 0
-11 -18 61 -48 40 -49 65 0
-11 -18 61 -48 40 49 -65 0
-11 -18 61 48 -40 -49 65 0
-11 -18 61 48 -40 49 -65 0
-11 -18 61 -52 41 -53 65 0
-11 -18 61 -52 41 53 -65 0
-11 -18 61 52 -41 -53 65 0
-11 -18 61 52 -41 53 -65 0
-11 -18 61 -56 42 -57 65 0
-11 -18 61 -56 42 57 -65 0
-11 -18 61 56 -42 -57 65 0
-11 -18 61 56 -42 57 -65 0
-15 -18 61 -44 43 -45 65 0
-15 -18 61 -44 43 45 -65 0
-15 -18 61 44 -43 -45 65 0
-15 -18 61 44 -43 45 -65 0
-15 -18 61 -48 47 -49 65 0
-15 -18 61 -48 47 49 -65 0
-15 -18 61 48 -47 -49 65 0
-15 -18 61 48 -47 49 -65 0
-15 -18 61 -52 51 -53 65 0
-15 -18 61 -52 51 53 -65 0
-15 -18 61 52 -51 -53 65 0
-15 -18 61 52 -51 53 -65 0
-15 -18 61 -56 55 -57 65 0
-15 -18 61 -56 55 57 -65 0
-15 -18 61 56 -55 -57 65 0
-15 -18 61 56 -55 57 -65 0
-20 -21 62 -39 35 -46 66 0
-20 -21 62 -39 35 46 -66 0
-20 -21 62 39 -35 -46 66 0
-20 -21 62 39 -35 46 -66 0
-20 -21 62 -40 36 -50 66 0
-20 -21 62 -40 36 50 -66 0
-20 -21 62 40 -36 -50 66 0
-20 -21 62 40 -36 50 -66 0
-20 -21 62 -41 37 -54 66 0
-20 -21 62 -41 37 54 -66 0
-20 -21 62 41 -37 -54 66 0
-20 -21 62 41 -37 54 -66 0
-20 -21 62 -42 38 -58 66 0
-20 -21 62 -42 38 58 -66 0
-20 -21 62 42 -38 -58 66 0
-20 -21 62 42 -38 58 -66 0
-20 -24 62 -43 35 -46 66 0
-20 -24 62 -43 35 46 -66 0
-20 -24 62 43 -35 -46 66 0
-20 -24 62 43 -35 46 -66 0
-20 -24 62 -47 36 -50 66 0
-20 -24 62 -47 36 50 -66 0
-20 -24 62 47 -36 -50 66 0
-20 -24 62 47 -36 50 -66 0
-20 -24 62 -51 37 -54 66 0
-20 -24 62 -51 37 54 -66 0
-20 -24 62 51 -37 -54 66 0
-20 -24 62 51 -37 54 -66 0
-20 -24 62 -55 38 -58 66 0
-20 -24 62 -55 38 58 -66 0
-20 -24 62 55 -38 -58 66 0
-20 -24 62 55 -38 58 -66 0
-19 -24 62 -43 39 -46 66 0
-19 -24 62 -43 39 46 -66 0
-19 -24 62 43 -39 -46 66 0
-19 -24 62 43 -39 46 -66 0
-19 -24 62 -47 40 -50 66 0
-19 -24 62 -47 40 50 -66 0
-19 -24 62 47 -40 -50 66 0
-19 -24 62 47 -40 50 -66 0
-19 -24 62 -51 41 -54 66 0
-19 -24 62 -51 41 54 -66 0
-19 -24 62 51 -41 -54 66 0
-19 -24 62 51 -41 54 -66 0
-19 -24 62 -55 42 -58 66 0
-19 -24 62 -55 42 58 -66 0
-19 -24 62 55 -42 -58 66 0
-19 -24 62 55 -42 58 -66 0
-20 -26 62 -44 35 -46 66 0
-20 -26 62 -44 35 46 -66 0
-20 -26 62 44 -35 -46 66 0
-20 -26 62 44 -35 46 -66 0
-20 -26 62 -48 36 -50 66 0
-20 -26 62 -48 36 50 -66 0
-20 -26 62 48 -36 -50 66 0
-20 -26 62 48 -36 50 -66 0
-20 -26 62 -52 37 -54 66 0
-20 -26 62 -52 37 54 -66 0
-20 -26 62 52 -37 -54 66 0
-20 -26 62 52 -37 54 -66 0
-20 -26 62 -56 38 -58 66 0
-20 -26 62 -56 38 58 -66 0
-20 -26 62 56 -38 -58 66 0
-20 -26 62 56 -38 58 -66 0
-19 -26 62 -44 39 -46 66 0
-19 -26 62 -44 39 46 -66 0
-19 -26 62 44 -39 -46 66 0
-19 -26 62 44 -39 46 -66 0
-19 -26 62 -48 40 -50 66 0
-19 -26 62 -48 40 50 -66 0
-19 -26 62 48 -40 -50 66 0
-19 -26 62 48 -40 50 -66 0
-19 -26 62 -52 41 -54 66 0
-19 -26 62 -52 41 54 -66 0
-19 -26 62 52 -41 -54 66 0
-19 -26 62 52 -41 54 -66 0
-19 -26 62 -56 42 -58 66 0
-19 -26 62 -56 42 58 -66 0
-19 -26 62 56 -42 -58 66 0
-19 -26 62 56 -42 58 -66 0
-23 -26 62 -44 43 -46 66 0
-23 -26 62 -44 43 46 -66 0
-23 -26 62 44 -43 -46 66 0
-23 -26 62 44 -43 46 -66 0
-23 -26 62 -48 47 -50 66 0
-23 -26 62 -48 47 50 -66 0
-23 -26 62 48 -47 -50 66 0
-23 -26 62 48 -47 50 -66 0
-23 -26 62 -52 51 -54 66 0
-23 -26 62 -52 51 54 -66 0
-23 -26 62 52 -51 -54 66 0
-23 -26 62 52 -51 54 -66 0
-23 -26 62 -56 55 -58 66 0
-23 -26 62 -56 55 58 -66 0
-23 -26 62 56 -55 -58 66 0
-23 -26 62 56 -55 58 -66 0
-20 -28 62 -45 35 -46 66 0
-20 -28 62 -45 35 46 -66 0
-20 -28 62 45 -35 -46 66 0
-20 -28 62 45 -35 46 -66 0
-20 -28 62 -49 36 -50 66 0
-20 -28 62 -49 36 50 -66 0
-20 -28 62 49 -36 -50 66 0
-20 -28 62 49 -36 50 -66 0
-20 -28 62 -53 37 -54 66 0
-20 -28 62 -53 37 54 -66 0
-20 -28 62 53 -37 -54 66 0
-20 -28 62 53 -37 54 -66 0
-20 -28 62 -57 38 -58 66 0
-20 -28 62 -57 38 58 -66 0
-20 -28 62 57 -38 -58 66 0
-20 -28 62 57 -38 58 -66 0
-19 -28 62 -45 39 -46 66 0
-19 -28 62 -45 39 46 -66 0
-19 -28 62 45 -39 -46 66 0
-19 -28 62 45 -39 46 -66 0
-19 -28 62 -49 40 -50 66 0
-19 -28 62 -49 40 50 -66 0
-19 -28 62 49 -40 -50 66 0
-19 -28 62 49 -40 50 -66 0
-19 -28 62 -53 41 -54 66 0
-19 -28 62 -53 41 54 -66 0
-19 -28 62 53 -41 -54 66 0
-19 -28 62 53 -41 54 -66 0
-19 -28 62 -57 42 -58 66 0
-19 -28 62 -57 42 58 -66 0
-19 -28 62 57 -42 -58 66 0
-19 -28 62 57 -42 58 -66 0
-23 -28 62 -45 43 -46 66 0
-23 -28 62 -45 43 46 -66 0
-23 -28 62 45 -43 -46 66 0
-23 -28 62 45 -43 46 -66 0
-23 -28 62 -49 47 -50 66 0
-23 -28 62 -49 47 50 -66 0
-23 -28 62 49 -47 -50 66 0
-23 -28 62 49 -47 50 -66 0
-23 -28 62 -53 51 -54 66 0
-23 -28 62 -53 51 54 -66 0
-23 -28 62 53 -51 -54 66 0
-23 -28 62 53 -51 54 -66 0
-23 -28 62 -57 55 -58 66 0
-23 -28 62 -57 55 58 -66 0
-23 -28 62 57 -55 -58 66 0
-23 -28 62 57 -55 58 -66 0
-25 -28 62 -45 44 -46 66 0
-25 -28 62 -45 44 46 -66 0
-25 -28 62 45 -44 -46 66 0
-25 -28 62 45 -44 46 -66 0
-25 -28 62 -49 48 -50 66 0
-25 -28 62 -49 48 50 -66 0
-25 -28 62 49 -48 -50 66 0
-25 -28 62 49 -48 50 -66 0
-25 -28 62 -53 52 -54 66 0
-25 -28 62 -53 52 54 -66 0
-25 -28 62 53 -52 -54 66 0
-25 -28 62 53 -52 54 -66 0
-25 -28 62 -57 56 -58 66 0
-25 -28 62 -57 56 58 -66 0
-25 -28 62 57 -56 -58 66 0
-25 -28 62 57 -56 58 -66 0
c restrict connections to DNF
-67 59 63 -60 0
-67 59 -63 -60 0
-67 59 -63 63 0
-68 59 63 -60 0
-68 59 -63 -60 0
-68 59 -63 63 0
-69 59 63 -61 0
-69 59 -63 -61 0
-69 59 -63 63 0
-70 59 63 -61 0
-70 59 -63 -61 0
-70 59 -63 63 0
-71 60 64 -61 0
-71 60 -64 -61 0
-71 60 -64 64 0
-72 60 64 -61 0
-72 60 -64 -61 0
-72 60 -64 64 0
-73 59 63 -62 0
-73 59 -63 -62 0
-73 59 -63 63 0
-74 59 63 -62 0
-74 59 -63 -62 0
-74 59 -63 63 0
-75 60 64 -62 0
-75 60 -64 -62 0
-75 60 -64 64 0
-76 60 64 -62 0
-76 60 -64 -62 0
-76 60 -64 64 0
-77 61 65 -62 0
-77 61 -65 -62 0
-77 61 -65 65 0
-78 61 65 -62 0
-78 61 -65 -62 0
-78 61 -65 65 0
c variable names:
c c_2_0_1 1
c c_2_0_0 2
c c_2_1_1 3
c c_2_1_0 4
c c_3_0_1 5
c c_3_0_0 6
c c_3_1_1 7
c c_3_1_0 8
c c_3_0_2 9
c c_3_1_2 10
c c_4_0_1 11
c c_4_0_0 12
c c_4_1_1 13
c c_4_1_0 14
c c_4_0_2 15
c c_4_1_2 16
c c_4_0_3 17
c c_4_1_3 18
c c_5_0_1 19
c c_5_0_0 20
c c_5_1_1 21
c c_5_1_0 22
c c_5_0_2 23
c c_5_1_2 24
c c_5_0_3 25
c c_5_1_3 26
c c_5_0_4 27
c c_5_1_4 28
c o_1_0 29
c o_0_0 30
c o_2_0 31
c o_3_0 32
c o_4_0 33
c o_5_0 34
c v_0_0 35
c v_0_1 36
c v_0_2 37
c v_0_3 38
c v_1_0 39
c v_1_1 40
c v_1_2 41
c v_1_3 42
c v_2_0 43
c v_3_0 44
c v_4_0 45
c v_5_0 46
c v_2_1 47
c v_3_1 48
c v_4_1 49
c v_5_1 50
c v_2_2 51
c v_3_2 52
c v_4_2 53
c v_5_2 54
c v_2_3 55
c v_3_3 56
c v_4_3 57
c v_5_3 58
c m_2_0 59
c m_3_0 60
c m_4_0 61
c m_5_0 62
c m_2_1 63
c m_3_1 64
c m_4_1 65
c m_5_1 66
c c_2_0_3 67
c c_2_1_3 68
c c_2_0_4 69
c c_2_1_4 70
c c_3_0_4 71
c c_3_1_4 72
c c_2_0_5 73
c c_2_1_5 74
c c_3_0_5 75
c c_3_1_5 76
c c_4_0_5 77
c c_4_1_5 78
